Minimize
  0.0666666666666667 y_0 + 0.0625 y_1 + 0.0625 y_2 + 0.1666666666666667 y_3
   + 0.0714285714285714 y_4 + 0.1428571428571428 y_5 + 0.125 y_6 + 0.25 y_7
   + 0.0434782608695652 y_8 + 0.1666666666666667 y_9 + 0.05 y_10
   + 0.05 y_11 + 0.0625 y_12 + 0.0909090909090909 y_13 + 0.05 y_14
   + 0.037037037037037 y_15 + 0.0416666666666667 y_16
   + 0.0555555555555556 y_17 + 0.0769230769230769 y_18
   + 0.0769230769230769 y_19 + 0.5 y_20 + 0.0526315789473684 y_21
   + 0.0434782608695652 y_22 + 0.0625 y_23 + 0.0714285714285714 y_24
   + 0.0526315789473684 y_25 + 0.0416666666666667 y_26
   + 0.0434782608695652 y_27 + 0.0434782608695652 y_28
   + 0.0769230769230769 y_29 + 0.04 y_30 + 0.0909090909090909 y_31
   + 0.05 y_32 + 0.0714285714285714 y_33 + 0.0526315789473684 y_34
   + 0.0714285714285714 y_35 + 0.0714285714285714 y_36
   + 0.0714285714285714 y_37 + 0.0434782608695652 y_38 + 0.0625 y_39
   + 0.0434782608695652 y_40 + 0.0476190476190476 y_41 + 0.125 y_42
   + 0.1111111111111111 y_43 + 0.125 y_44 + 0.0588235294117647 y_45
   + 0.1 y_46 + 0.0833333333333333 y_47 + 0.0454545454545455 y_48
   + 0.0526315789473684 y_49 + 0.1428571428571428 y_50
   + 0.0714285714285714 y_51 + 0.0625 y_52 + 0.1 y_53
   + 0.0526315789473684 y_54 + 0.0555555555555556 y_55 + 0.1 y_56
   + 0.0588235294117647 y_57 + y_58 + 0.0476190476190476 y_59
   + 0.1111111111111111 y_60 + 0.0526315789473684 y_61 + 0.04 y_62
   + 0.05 y_63 + 0.0555555555555556 y_64 + 0.0476190476190476 y_65
   + 0.0769230769230769 y_66 + 0.0588235294117647 y_67
   + 0.0476190476190476 y_68 + 0.0526315789473684 y_69
   + 0.0476190476190476 y_70 + 0.0526315789473684 y_71
   + 0.0555555555555556 y_72 + 0.0434782608695652 y_73
   + 0.0714285714285714 y_74 + 0.0454545454545455 y_75 + 0.05 y_76
   + 0.0666666666666667 y_77 + 0.0526315789473684 y_78 + 0.05 y_79
   + 0.0555555555555556 y_80 + 0.0555555555555556 y_81
   + 0.1111111111111111 y_82 + 0.0769230769230769 y_83
   + 0.0454545454545455 y_84 + 0.0833333333333333 y_85
   + 0.0769230769230769 y_86 + 0.0476190476190476 y_87 + 0.1 y_88
   + 0.1111111111111111 y_89 + 0.0714285714285714 y_90 + 0.0625 y_91
   + 0.0714285714285714 y_92 + 0.0625 y_93 + 0.0625 y_94
   + 0.0909090909090909 y_95 + 0.0666666666666667 y_96
   + 0.0526315789473684 y_97 + 0.0555555555555556 y_98
   + 0.0588235294117647 y_99 - 8.393505093255053 Constant
Subject To
 c_0: y_49 = 1
 c_1_0: y_0 + y_35 + y_36 + y_39 + y_51 + y_77 + y_93 + y_99 >= 1
 c_1_1: y_1 + y_24 + y_57 + y_91 >= 1
 c_1_2: y_2 + y_91 >= 1
 c_1_3: y_3 + y_42 >= 1
 c_1_4: y_4 >= 1
 c_1_5: y_5 + y_6 >= 1
 c_1_6: y_5 + y_6 + y_9 + y_43 + y_44 + y_50 + y_60 + y_89 >= 1
 c_1_7: y_7 + y_9 >= 1
 c_1_8: y_8 + y_16 + y_26 + y_38 + y_73 >= 1
 c_1_9: y_6 + y_7 + y_9 + y_44 + y_50 >= 1
 c_1_10: y_10 + y_32 + y_54 + y_61 + y_65 + y_80 >= 1
 c_1_11: y_11 + y_49 + y_63 + y_71 >= 1
 c_1_12: y_12 + y_45 + y_52 + y_94 >= 1
 c_1_13: y_13 >= 1
 c_1_14: y_14 + y_21 >= 1
 c_1_15: y_15 >= 1
 c_1_16: y_8 + y_16 + y_26 + y_27 + y_38 + y_73 >= 1
 c_1_17: y_17 + y_69 + y_98 >= 1
 c_1_18: y_18 + y_19 + y_33 + y_37 + y_86 >= 1
 c_1_19: y_18 + y_19 + y_33 + y_37 + y_86 >= 1
 c_1_20: y_20 + y_58 >= 1
 c_1_21: y_14 + y_21 + y_79 >= 1
 c_1_22: y_22 + y_27 + y_38 + y_75 >= 1
 c_1_23: y_23 + y_74 + y_96 >= 1
 c_1_24: y_1 + y_24 + y_83 >= 1
 c_1_25: y_25 >= 1
 c_1_26: y_8 + y_16 + y_26 >= 1
 c_1_27: y_16 + y_22 + y_27 + y_38 + y_73 + y_75 >= 1
 c_1_28: y_28 + y_40 + y_84 + y_87 >= 1
 c_1_29: y_29 + y_83 + y_86 >= 1
 c_1_30: y_30 + y_62 >= 1
 c_1_31: y_31 + y_47 + y_56 + y_85 >= 1
 c_1_32: y_10 + y_32 + y_59 + y_76 + y_80 >= 1
 c_1_33: y_18 + y_19 + y_33 + y_37 + y_47 + y_86 + y_90 >= 1
 c_1_34: y_34 + y_97 >= 1
 c_1_35: y_0 + y_35 + y_36 + y_66 + y_77 + y_93 + y_96 >= 1
 c_1_36: y_0 + y_35 + y_36 + y_39 + y_51 + y_66 + y_77 + y_93 + y_96 >= 1
 c_1_37: y_18 + y_19 + y_33 + y_37 + y_90 >= 1
 c_1_38: y_8 + y_16 + y_22 + y_27 + y_38 + y_73 + y_75 >= 1
 c_1_39: y_0 + y_36 + y_39 + y_77 + y_93 + y_99 >= 1
 c_1_40: y_28 + y_40 + y_84 >= 1
 c_1_41: y_41 >= 1
 c_1_42: y_3 + y_42 >= 1
 c_1_43: y_6 + y_43 + y_44 + y_50 + y_60 + y_89 >= 1
 c_1_44: y_6 + y_9 + y_43 + y_44 + y_50 + y_60 + y_89 >= 1
 c_1_45: y_12 + y_45 + y_94 >= 1
 c_1_46: y_46 + y_53 + y_82 + y_95 >= 1
 c_1_47: y_31 + y_33 + y_47 + y_85 + y_90 >= 1
 c_1_48: y_48 + y_70 >= 1
 c_1_49: y_11 + y_49 + y_63 + y_71 >= 1
 c_1_50: y_6 + y_9 + y_43 + y_44 + y_50 >= 1
 c_1_51: y_0 + y_36 + y_51 + y_92 >= 1
 c_1_52: y_12 + y_52 + y_92 >= 1
 c_1_53: y_46 + y_53 + y_82 + y_95 >= 1
 c_1_54: y_10 + y_54 + y_55 + y_61 + y_65 + y_80 >= 1
 c_1_55: y_54 + y_55 + y_61 + y_99 >= 1
 c_1_56: y_31 + y_56 + y_60 + y_85 + y_89 >= 1
 c_1_57: y_1 + y_57 + y_72 + y_81 >= 1
 c_1_58: y_20 + y_58 >= 1
 c_1_59: y_32 + y_59 + y_76 >= 1
 c_1_60: y_6 + y_43 + y_44 + y_56 + y_60 + y_89 >= 1
 c_1_61: y_10 + y_54 + y_55 + y_61 + y_65 >= 1
 c_1_62: y_30 + y_62 >= 1
 c_1_63: y_11 + y_49 + y_63 + y_71 >= 1
 c_1_64: y_64 + y_91 >= 1
 c_1_65: y_10 + y_54 + y_61 + y_65 >= 1
 c_1_66: y_35 + y_36 + y_66 + y_74 + y_77 + y_96 >= 1
 c_1_67: y_67 >= 1
 c_1_68: y_68 + y_69 + y_87 >= 1
 c_1_69: y_17 + y_68 + y_69 + y_98 >= 1
 c_1_70: y_48 + y_70 >= 1
 c_1_71: y_11 + y_49 + y_63 + y_71 >= 1
 c_1_72: y_57 + y_72 + y_78 + y_81 >= 1
 c_1_73: y_8 + y_16 + y_27 + y_38 + y_73 + y_75 >= 1
 c_1_74: y_23 + y_66 + y_74 + y_96 >= 1
 c_1_75: y_22 + y_27 + y_38 + y_73 + y_75 >= 1
 c_1_76: y_32 + y_59 + y_76 >= 1
 c_1_77: y_0 + y_35 + y_36 + y_39 + y_66 + y_77 + y_93 + y_96 >= 1
 c_1_78: y_72 + y_78 + y_81 >= 1
 c_1_79: y_21 + y_79 >= 1
 c_1_80: y_10 + y_32 + y_54 + y_80 >= 1
 c_1_81: y_57 + y_72 + y_78 + y_81 >= 1
 c_1_82: y_46 + y_53 + y_82 + y_95 >= 1
 c_1_83: y_24 + y_29 + y_83 >= 1
 c_1_84: y_28 + y_40 + y_84 >= 1
 c_1_85: y_31 + y_47 + y_56 + y_85 >= 1
 c_1_86: y_18 + y_19 + y_29 + y_33 + y_86 >= 1
 c_1_87: y_28 + y_68 + y_87 >= 1
 c_1_88: y_88 >= 1
 c_1_89: y_6 + y_43 + y_44 + y_56 + y_60 + y_89 >= 1
 c_1_90: y_33 + y_37 + y_47 + y_90 + y_94 >= 1
 c_1_91: y_1 + y_2 + y_64 + y_91 >= 1
 c_1_92: y_51 + y_52 + y_92 >= 1
 c_1_93: y_0 + y_35 + y_36 + y_39 + y_77 + y_93 + y_96 + y_99 >= 1
 c_1_94: y_12 + y_45 + y_90 + y_94 >= 1
 c_1_95: y_46 + y_53 + y_82 + y_95 >= 1
 c_1_96: y_23 + y_35 + y_36 + y_66 + y_74 + y_77 + y_93 + y_96 >= 1
 c_1_97: y_34 + y_97 >= 1
 c_1_98: y_17 + y_69 + y_98 >= 1
 c_1_99: y_0 + y_39 + y_55 + y_93 + y_99 >= 1
Bounds
 Constant = 1
Binaries
 y_0 y_1 y_2 y_3 y_4 y_5 y_6 y_7 y_8 y_9 y_10 y_11 y_12 y_13 y_14 y_15 y_16
 y_17 y_18 y_19 y_20 y_21 y_22 y_23 y_24 y_25 y_26 y_27 y_28 y_29 y_30 y_31
 y_32 y_33 y_34 y_35 y_36 y_37 y_38 y_39 y_40 y_41 y_42 y_43 y_44 y_45 y_46
 y_47 y_48 y_49 y_50 y_51 y_52 y_53 y_54 y_55 y_56 y_57 y_58 y_59 y_60 y_61
 y_62 y_63 y_64 y_65 y_66 y_67 y_68 y_69 y_70 y_71 y_72 y_73 y_74 y_75 y_76
 y_77 y_78 y_79 y_80 y_81 y_82 y_83 y_84 y_85 y_86 y_87 y_88 y_89 y_90 y_91
 y_92 y_93 y_94 y_95 y_96 y_97 y_98 y_99
End
